%dati
num_ore= 10*num_giorni;
num_stud=19;
num_giorni=5;

num_esami=13;
durata = [4,1,2,3,2,1,2,3,4,2,1,3,2];

num_aule =4;
capienza = [20,30,40,50];

prenot= 
[|1,1,0,0,0,0,0,0,0,0,0,1,1   %1!=2!=12!=13                 
|1,1,0,0,0,0,0,0,0,0,0,0,0 %1!=2
|0,0,0,0,0,0,0,0,0,0,0,0,1 
|1,0,0,0,0,0,0,0,0,0,0,1,0 %1!=12 
|1,0,0,0,0,0,0,0,0,0,0,1,1 %1!=12!=13
|1,1,0,0,0,0,0,0,0,0,0,0,1 %1!=2!=13
|1,0,0,0,0,0,0,0,0,0,0,0,0 
|0,0,0,0,0,1,1,0,0,0,0,0,0 %6!=7
|0,0,0,0,0,0,0,1,1,0,0,0,0 %8!=9
|1,0,0,0,0,0,0,0,0,0,0,0,0 
|0,0,0,0,0,0,0,1,1,0,0,0,0 
|1,0,0,0,0,0,0,1,0,0,0,0,0 %1!=8
|1,0,0,0,0,0,0,1,0,0,0,0,1 %1!=8!=13
|0,0,0,0,0,0,0,0,0,0,0,1,1 %12!=13
|0,0,0,0,1,1,0,0,0,0,0,0,0 %5!=6
|1,1,0,0,0,0,0,0,0,0,0,0,0 %1!=2
|0,0,0,0,0,1,1,0,0,0,0,0,0 %6!=7
|1,1,1,0,0,0,0,0,0,0,0,0,0 %1!=2!=3
|1,0,1,0,0,0,0,0,0,0,0,0,0 %1!=3
|];